desiredZ=[1];
nNurses = 117;
hours = 44;
demand = [26 20 26 17 18 26 21 18 1 0 21 24 11 6 12 24 22 3 5 6 21 7 26 12 5 12 4 25 0 12 11 1 6 29 25 12 25 26 25 21 16 15 21 17];
minHours = 21;
maxHours = 28;
maxConsec = 25;
maxPresence = 31;